Read MPS format model from file dat/rmp/DER_24_32768_40.mps
Reading time = 1.63 seconds
: 32792 rows, 192039 columns, 4321034 nonzeros
Gurobi Optimizer version 9.0.0 build v9.0.0rc2 (linux64)
Optimize a model with 32792 rows, 192039 columns and 4321034 nonzeros
Model fingerprint: 0x5f08dea0
Coefficient statistics:
  Matrix range     [5e-07, 1e+01]
  Objective range  [2e-01, 1e+03]
  Bounds range     [2e+05, 2e+05]
  RHS range        [1e+00, 1e+00]
Ordering time: 0.02s

Barrier statistics:
 AA' NZ     : 7.452e+05
 Factor NZ  : 1.048e+06 (roughly 100 MBytes of memory)
 Factor Ops : 3.645e+07 (less than 1 second per iteration)
 Threads    : 1

                  Objective                Residual
Iter       Primal          Dual         Primal    Dual     Compl     Time
   0   1.34659308e+09 -7.62562436e+07  1.59e+08 5.67e-03  3.18e+05     1s
   1   2.75776976e+07 -1.59040266e+07  3.18e+06 2.73e-12  6.42e+03     1s
   2   6.48896165e+05 -9.81698104e+06  6.64e+04 3.64e-12  1.84e+02     1s
   3   4.80782614e+04 -4.47392667e+06  1.09e-09 3.64e-12  2.35e+01     1s
   4   4.75610716e+04  3.21122468e+04  7.52e-10 1.82e-12  8.04e-02     2s
   5   4.69527255e+04  4.17706864e+04  3.44e-10 4.55e-12  2.70e-02     2s
   6   4.65341757e+04  4.55972943e+04  4.57e-10 3.64e-12  4.88e-03     2s
   7   4.63456966e+04  4.59982059e+04  7.25e-10 5.46e-12  1.81e-03     3s
   8   4.62648552e+04  4.61379267e+04  1.58e-09 3.64e-12  6.61e-04     3s
   9   4.62217804e+04  4.61909204e+04  2.02e-09 5.46e-12  1.61e-04     3s
  10   4.62080101e+04  4.61973137e+04  2.68e-09 3.64e-12  5.57e-05     3s
  11   4.62049493e+04  4.61999954e+04  1.94e-09 1.82e-12  2.58e-05     3s
  12   4.62043116e+04  4.62005007e+04  2.01e-09 3.64e-12  1.98e-05     4s
  13   4.62039207e+04  4.62008053e+04  2.91e-09 1.82e-12  1.62e-05     4s
  14   4.62035607e+04  4.62010227e+04  4.84e-09 1.82e-12  1.32e-05     4s
  15   4.62033775e+04  4.62012002e+04  4.07e-09 3.64e-12  1.13e-05     4s
  16   4.62031699e+04  4.62013622e+04  7.78e-09 1.82e-12  9.41e-06     4s
  17   4.62030674e+04  4.62014628e+04  7.60e-09 1.82e-12  8.35e-06     5s
  18   4.62028454e+04  4.62015748e+04  5.05e-09 1.82e-12  6.62e-06     5s
  19   4.62023570e+04  4.62016747e+04  1.42e-08 1.82e-12  3.55e-06     5s
  20   4.62022887e+04  4.62017861e+04  1.44e-08 7.62e-12  2.62e-06     5s
  21   4.62021554e+04  4.62018423e+04  1.76e-08 1.22e-11  1.63e-06     6s
  22   4.62021423e+04  4.62019108e+04  1.69e-08 1.40e-11  1.21e-06     6s
  23   4.62021293e+04  4.62019385e+04  1.60e-08 1.95e-11  9.94e-07     6s
  24   4.62021203e+04  4.62019503e+04  1.60e-08 2.19e-11  8.85e-07     6s
  25   4.62021120e+04  4.62019691e+04  1.54e-08 2.04e-11  7.44e-07     6s
  26   4.62020906e+04  4.62019801e+04  2.13e-08 2.27e-11  5.75e-07     7s
  27   4.62020852e+04  4.62019857e+04  1.93e-08 2.44e-11  5.18e-07     7s
  28   4.62020670e+04  4.62019926e+04  4.02e-08 2.35e-11  3.87e-07     7s
  29   4.62020657e+04  4.62019954e+04  4.08e-08 2.09e-11  3.66e-07     7s
  30   4.62020644e+04  4.62020037e+04  3.92e-08 9.12e-12  3.16e-07     7s
  31   4.62020417e+04  4.62020062e+04  2.61e-07 9.74e-12  1.85e-07     8s
  32   4.62020377e+04  4.62020086e+04  3.71e-07 8.00e-12  1.51e-07     8s
  33   4.62020359e+04  4.62020100e+04  4.10e-07 6.97e-12  1.35e-07     8s
  34   4.62020345e+04  4.62020120e+04  4.34e-07 5.44e-12  1.17e-07     8s
  35   4.62020344e+04  4.62020143e+04  4.27e-07 4.50e-12  1.05e-07     9s
  36   4.62020313e+04  4.62020150e+04  1.65e-06 4.30e-12  8.48e-08     9s
  37   4.62020296e+04  4.62020155e+04  2.31e-06 4.16e-12  7.31e-08     9s
  38   4.62020291e+04  4.62020161e+04  2.36e-06 3.69e-12  6.79e-08     9s
  39   4.62020288e+04  4.62020164e+04  2.33e-06 3.52e-12  6.47e-08     9s
  40   4.62020288e+04  4.62020168e+04  2.34e-06 3.24e-12  6.21e-08    10s
  41   4.62020282e+04  4.62020170e+04  2.67e-06 3.12e-12  5.80e-08    10s
  42   4.62020278e+04  4.62020171e+04  2.87e-06 3.07e-12  5.57e-08    10s
  43   4.62020276e+04  4.62020173e+04  2.98e-06 2.85e-12  5.35e-08    10s
  44   4.62020261e+04  4.62020176e+04  5.13e-06 2.69e-12  4.39e-08    10s
  45   4.62020256e+04  4.62020177e+04  5.79e-06 2.61e-12  4.12e-08    11s
  46   4.62020248e+04  4.62020179e+04  8.26e-06 2.42e-12  3.58e-08    11s
  47   4.62020247e+04  4.62020185e+04  8.33e-06 4.36e-12  3.19e-08    11s
  48   4.62020246e+04  4.62020187e+04  8.25e-06 3.19e-12  3.09e-08    11s
  49   4.62020246e+04  4.62020187e+04  8.25e-06 3.64e-12  3.05e-08    11s
  50   4.62020240e+04  4.62020190e+04  1.16e-05 1.82e-12  2.60e-08    12s
  51   4.62020236e+04  4.62020192e+04  1.57e-05 3.81e-12  2.27e-08    12s
  52   4.62020228e+04  4.62020192e+04  3.65e-05 3.64e-12  1.89e-08    12s
  53   4.62020228e+04  4.62020192e+04  3.87e-05 3.64e-12  1.84e-08    12s
  54   4.62020225e+04  4.62020193e+04  4.05e-05 1.82e-12  1.70e-08    13s
  55   4.62020218e+04  4.62020193e+04  5.99e-05 1.82e-12  1.29e-08    13s
  56   4.62020218e+04  4.62020193e+04  5.98e-05 1.82e-12  1.27e-08    13s
  57   4.62020217e+04  4.62020194e+04  6.04e-05 3.64e-12  1.18e-08    13s
  58   4.62020214e+04  4.62020194e+04  6.75e-05 3.64e-12  1.05e-08    13s
  59   4.62020213e+04  4.62020194e+04  7.08e-05 3.64e-12  9.86e-09    14s
  60   4.62020213e+04  4.62020195e+04  7.79e-05 1.82e-12  9.30e-09    14s
  61   4.62020209e+04  4.62020195e+04  1.04e-04 1.82e-12  7.45e-09    14s
  62   4.62020209e+04  4.62020195e+04  1.03e-04 1.82e-12  7.28e-09    15s
  63   4.62020209e+04  4.62020195e+04  1.02e-04 1.82e-12  7.18e-09    15s
  64   4.62020207e+04  4.62020195e+04  1.15e-04 1.82e-12  6.24e-09    15s
  65   4.62020207e+04  4.62020195e+04  9.88e-05 1.82e-12  5.99e-09    15s
  66   4.62020200e+04  4.62020196e+04  7.83e-05 3.64e-12  2.24e-09    16s
  67   4.62020200e+04  4.62020196e+04  7.81e-05 5.46e-12  2.23e-09    16s
  68   4.62020200e+04  4.62020196e+04  7.68e-05 3.64e-12  2.20e-09    16s
  69   4.62020200e+04  4.62020196e+04  7.22e-05 1.82e-12  1.99e-09    16s
  70   4.62020200e+04  4.62020196e+04  7.19e-05 1.82e-12  1.97e-09    16s
  71   4.62020200e+04  4.62020196e+04  6.97e-05 1.82e-12  1.79e-09    17s
  72   4.62020200e+04  4.62020196e+04  6.87e-05 3.95e-14  1.88e-09    17s
  73   4.62020200e+04  4.62020197e+04  6.55e-05 1.82e-12  1.52e-09    17s
  74   4.62020199e+04  4.62020196e+04  6.37e-05 8.53e-12  1.69e-09    17s
  75   4.62020199e+04  4.62020196e+04  6.31e-05 7.93e-12  1.63e-09    17s
  76   4.62020199e+04  4.62020196e+04  6.32e-05 7.54e-12  1.59e-09    18s
  77   4.62020199e+04  4.62020196e+04  9.44e-05 7.27e-12  1.24e-09    18s
  78   4.62020199e+04  4.62020196e+04  1.01e-04 5.56e-12  1.25e-09    18s
  79   4.62020199e+04  4.62020196e+04  1.30e-04 4.89e-12  1.07e-09    18s
  80   4.62020199e+04  4.62020196e+04  1.30e-04 3.41e-12  1.06e-09    18s
  81   4.62020198e+04  4.62020197e+04  1.92e-04 2.57e-12  8.16e-10    19s
  82   4.62020198e+04  4.62020197e+04  2.01e-04 2.50e-12  8.13e-10    19s
  83   4.62020198e+04  4.62020197e+04  3.74e-04 1.90e-12  5.42e-10    19s
  84   4.62020198e+04  4.62020197e+04  3.67e-04 3.64e-12  5.35e-10    19s
  85   4.62020199e+04  4.62020198e+04  6.09e-04 3.64e-12  8.13e-11    19s

Barrier performed 85 iterations in 19.44 seconds
Sub-optimal termination - objective 4.62022887e+04

Solve time: 19.448349159
Barrier iterations: 85
